30
1 0 5
2 0 2
2 1 3
3 2 1
4 0 4
4 3 5
5 1 3
5 2 2
5 3 2
6 1 1
6 2 1
6 4 1
7 0 6
7 6 5
8 1 5
8 2 5
8 6 3
9 2 1
9 4 3
9 8 6
10 0 4
10 1 4
10 7 3
10 8 2
11 1 1
11 4 2
11 5 3
11 6 5
11 7 4
11 10 6
12 1 1
12 3 1
12 5 1
12 9 5
12 10 3
13 3 1
13 4 2
13 5 5
13 6 2
13 10 6
13 11 4
13 12 4
14 0 6
14 1 4
14 3 1
14 4 2
14 5 3
14 7 4
14 12 3
14 13 6
15 0 4
15 1 4
15 3 2
15 5 1
15 6 6
15 7 5
15 8 4
15 13 6
15 14 3
16 1 3
16 2 4
16 5 5
16 7 3
16 12 6
16 13 2
16 14 3
17 0 3
17 3 6
17 4 1
17 5 5
17 8 4
17 11 6
17 12 4
18 2 1
18 6 4
18 7 3
18 8 2
18 9 5
18 10 1
18 12 5
18 14 2
18 16 6
19 3 5
19 5 5
19 6 4
19 8 1
19 9 6
19 13 2
19 17 4
19 18 6
20 0 4
20 1 5
20 2 6
20 6 4
20 7 4
20 8 5
20 9 1
20 11 3
20 14 1
20 15 2
20 17 2
20 19 1
21 1 6
21 2 6
21 5 5
21 7 4
21 8 6
21 9 5
21 12 5
21 13 2
21 14 6
21 16 3
21 17 1
22 0 1
22 2 1
22 3 5
22 4 3
22 7 2
22 10 4
22 11 1
22 13 3
22 14 1
22 16 3
22 18 2
22 19 6
22 20 3
23 1 1
23 3 6
23 4 6
23 11 3
23 14 5
23 18 5
23 19 1
23 20 2
23 21 2
23 22 1
24 0 5
24 2 1
24 4 5
24 5 6
24 11 1
24 12 6
24 16 6
24 17 3
24 18 4
24 20 3
24 23 3
25 1 3
25 2 6
25 4 1
25 5 4
25 10 4
25 11 1
25 14 6
25 15 1
25 16 1
25 19 3
25 20 6
25 24 1
26 0 3
26 3 4
26 11 6
26 12 6
26 15 6
26 17 6
26 20 1
26 21 1
26 23 6
26 24 5
27 1 5
27 2 3
27 3 6
27 6 5
27 9 3
27 10 2
27 13 5
27 14 3
27 15 2
27 20 4
27 21 1
27 22 1
27 23 5
27 26 6
28 1 2
28 3 3
28 4 2
28 7 2
28 8 2
28 10 2
28 13 6
28 14 5
28 15 6
28 17 4
28 19 4
28 23 2
28 24 1
28 26 1
28 27 6
29 0 3
29 8 5
29 10 6
29 11 3
29 13 6
29 14 3
29 15 1
29 16 5
29 19 4
29 20 1
29 21 4
29 23 2
29 25 5
29 26 5
29 27 3
29 28 4
